
Gurobi 11.0.3 (linux64) logging started Sun Nov 24 19:13:56 2024

Set parameter LogFile to value "/home/yihong/Coding/OR_SUC/SUC_results_bigM100000_thread4/case24_ieee_rts_theta0.1_epsilon0.05_gurobi_seed1200000_num_gen100_N_WDR100_load_scaling_factor1_exact_T12quadra_cost.txt"
Set parameter TimeLimit to value 3600
Gurobi Optimizer version 11.0.3 build v11.0.3rc0 (linux64 - "Ubuntu 20.04.6 LTS")

CPU model: AMD EPYC 7532 32-Core Processor, instruction set [SSE2|AVX|AVX2]
Thread count: 64 physical cores, 128 logical processors, using up to 4 threads

Optimize a model with 28631 rows, 15081 columns and 662130 nonzeros
Model fingerprint: 0x5bcff0fb
Model has 1200 quadratic constraints
Variable types: 13781 continuous, 1300 integer (1300 binary)
Coefficient statistics:
  Matrix range     [3e-04, 1e+05]
  QMatrix range    [2e-03, 8e-03]
  QLMatrix range   [1e-02, 6e+01]
  Objective range  [1e+00, 1e+00]
  Bounds range     [1e+00, 1e+00]
  RHS range        [1e+00, 1e+05]
Presolve removed 23462 rows and 6486 columns
Presolve time: 0.18s
Presolved: 5169 rows, 8595 columns, 29161 nonzeros
Presolved model has 1200 quadratic constraint(s)
Variable types: 7321 continuous, 1274 integer (1274 binary)

Root relaxation: objective 1.460366e+04, 4112 iterations, 0.09 seconds (0.12 work units)

    Nodes    |    Current Node    |     Objective Bounds      |     Work
 Expl Unexpl |  Obj  Depth IntInf | Incumbent    BestBd   Gap | It/Node Time

     0     0 14603.6576    0   10          - 14603.6576      -     -    0s
     0     0 146163.761    0  399          - 146163.761      -     -    0s
     0     0 146352.546    0  398          - 146352.546      -     -    0s
     0     0 277281.058    0  299          - 277281.058      -     -    0s
     0     0 277460.314    0  218          - 277460.314      -     -    0s
     0     0 277738.938    0  207          - 277738.938      -     -    0s
     0     0 277800.929    0  195          - 277800.929      -     -    0s
     0     0 277994.533    0  193          - 277994.533      -     -    0s
     0     0 278013.833    0  193          - 278013.833      -     -    0s
     0     2 278013.833    0  193          - 278013.833      -     -    1s
H  183   196                    280487.59173 278528.156  0.70%  12.9    1s
*  183   196              61    280487.59173 278528.156  0.70%  12.9    1s
H  310   227                    279258.56373 278634.326  0.22%  15.2    2s
*  310   227              87    279258.56373 278634.326  0.22%  15.3    2s
   404   162 279248.746   30  164 279258.564 278634.761  0.22%  18.1    5s
   786   276 279043.493   80    - 279258.564 278665.064  0.21%  47.0   10s
H  897   271                    279240.65211 278670.444  0.20%  46.4   10s
*  897   271              84    279240.65211 278670.444  0.20%  46.4   10s
H 1196   284                    278736.08346 278670.444  0.02%  48.0   12s
* 1196   284              68    278736.08346 278670.444  0.02%  48.0   12s

Cutting planes:
  Gomory: 9
  Implied bound: 67
  Projected implied bound: 4
  MIR: 66
  Mixing: 2
  Flow cover: 40
  RLT: 2

Explored 1256 nodes (71161 simplex iterations) in 12.91 seconds (12.64 work units)
Thread count was 4 (of 128 available processors)

Solution count 5: 278736 278736 279241 ... 280488

Optimal solution found (tolerance 1.00e-03)
Warning: max constraint violation (3.6051e-06) exceeds tolerance
Best objective 2.787360834554e+05, best bound 2.786704437020e+05, gap 0.0235%
